Ex2/SET-COVER/output/nfa_output_SET-COVER-3-Contradiction.cnf
p cnf 150 614
-1 0
-2 0
-3 0
-4 0
-5 0
6 0
-7 0
8 0
9 0
-10 0
-11 0
12 0
13 0
-14 0
15 0
-16 0
-17 0
-18 0
-19 0
20 0
-21 0
22 0
-23 0
-24 0
-25 0
26 0
-27 0
-28 0
-29 0
-30 0
-31 0
32 0
-33 0
34 0
-35 0
-36 0
37 0
-38 0
-39 0
-40 0
41 0
-42 0
-43 0
-44 0
45 0
46 0
-47 0
-48 0
-49 0
-50 0
-51 0
52 0
-53 0
-54 0
-55 0
56 0
-57 0
-58 0
59 0
-60 0
61 0
-62 0
-63 0
-64 0
65 0
-66 0
-67 0
-68 0
69 0
-70 0
71 0
-72 0
73 0
-74 0
-75 0
-76 0
77 0
78 0
-79 0
-80 0
-81 0
-82 0
-83 0
-84 0
-85 0
86 0
-87 0
88 0
-89 0
90 0
-91 0
-92 0
93 0
-94 0
-95 0
-96 0
97 0
98 0
-99 0
-100 0
101 0
102 0
-103 0
-104 0
-105 0
106 0
-107 0
-108 0
-109 0
-110 0
111 0
-112 0
113 0
114 0
-115 0
-116 0
-117 0
-118 0
-119 0
-120 0
121 0
-122 0
-123 0
124 0
-125 0
126 0
-127 0
128 0
-129 0
130 0
131 0
-132 0
-133 0
-134 0
-135 0
136 137 138 0
139 140 141 142 143 0
144 145 142 146 0
144 139 147 143 0
148 136 140 138 149 146 143 0
150 144 141 138 146 0
148 137 140 149 145 142 147 0
150 139 141 145 0
150 136 149 147 0
-150 -144 -139 0
-150 -144 -148 0
-150 -144 -136 0
-150 -144 -137 0
-150 -144 -140 0
-150 -144 -141 0
-150 -144 -138 0
-150 -144 -149 0
-150 -144 -145 0
-150 -144 -142 0
-150 -144 -146 0
-150 -144 -147 0
-150 -144 -143 0
-150 -139 -148 0
-150 -139 -136 0
-150 -139 -137 0
-150 -139 -140 0
-150 -139 -141 0
-150 -139 -138 0
-150 -139 -149 0
-150 -139 -145 0
-150 -139 -142 0
-150 -139 -146 0
-150 -139 -147 0
-150 -139 -143 0
-150 -148 -136 0
-150 -148 -137 0
-150 -148 -140 0
-150 -148 -141 0
-150 -148 -138 0
-150 -148 -149 0
-150 -148 -145 0
-150 -148 -142 0
-150 -148 -146 0
-150 -148 -147 0
-150 -148 -143 0
-150 -136 -137 0
-150 -136 -140 0
-150 -136 -141 0
-150 -136 -138 0
-150 -136 -149 0
-150 -136 -145 0
-150 -136 -142 0
-150 -136 -146 0
-150 -136 -147 0
-150 -136 -143 0
-150 -137 -140 0
-150 -137 -141 0
-150 -137 -138 0
-150 -137 -149 0
-150 -137 -145 0
-150 -137 -142 0
-150 -137 -146 0
-150 -137 -147 0
-150 -137 -143 0
-150 -140 -141 0
-150 -140 -138 0
-150 -140 -149 0
-150 -140 -145 0
-150 -140 -142 0
-150 -140 -146 0
-150 -140 -147 0
-150 -140 -143 0
-150 -141 -138 0
-150 -141 -149 0
-150 -141 -145 0
-150 -141 -142 0
-150 -141 -146 0
-150 -141 -147 0
-150 -141 -143 0
-150 -138 -149 0
-150 -138 -145 0
-150 -138 -142 0
-150 -138 -146 0
-150 -138 -147 0
-150 -138 -143 0
-150 -149 -145 0
-150 -149 -142 0
-150 -149 -146 0
-150 -149 -147 0
-150 -149 -143 0
-150 -145 -142 0
-150 -145 -146 0
-150 -145 -147 0
-150 -145 -143 0
-150 -142 -146 0
-150 -142 -147 0
-150 -142 -143 0
-150 -146 -147 0
-150 -146 -143 0
-150 -147 -143 0
-144 -139 -148 0
-144 -139 -136 0
-144 -139 -137 0
-144 -139 -140 0
-144 -139 -141 0
-144 -139 -138 0
-144 -139 -149 0
-144 -139 -145 0
-144 -139 -142 0
-144 -139 -146 0
-144 -139 -147 0
-144 -139 -143 0
-144 -148 -136 0
-144 -148 -137 0
-144 -148 -140 0
-144 -148 -141 0
-144 -148 -138 0
-144 -148 -149 0
-144 -148 -145 0
-144 -148 -142 0
-144 -148 -146 0
-144 -148 -147 0
-144 -148 -143 0
-144 -136 -137 0
-144 -136 -140 0
-144 -136 -141 0
-144 -136 -138 0
-144 -136 -149 0
-144 -136 -145 0
-144 -136 -142 0
-144 -136 -146 0
-144 -136 -147 0
-144 -136 -143 0
-144 -137 -140 0
-144 -137 -141 0
-144 -137 -138 0
-144 -137 -149 0
-144 -137 -145 0
-144 -137 -142 0
-144 -137 -146 0
-144 -137 -147 0
-144 -137 -143 0
-144 -140 -141 0
-144 -140 -138 0
-144 -140 -149 0
-144 -140 -145 0
-144 -140 -142 0
-144 -140 -146 0
-144 -140 -147 0
-144 -140 -143 0
-144 -141 -138 0
-144 -141 -149 0
-144 -141 -145 0
-144 -141 -142 0
-144 -141 -146 0
-144 -141 -147 0
-144 -141 -143 0
-144 -138 -149 0
-144 -138 -145 0
-144 -138 -142 0
-144 -138 -146 0
-144 -138 -147 0
-144 -138 -143 0
-144 -149 -145 0
-144 -149 -142 0
-144 -149 -146 0
-144 -149 -147 0
-144 -149 -143 0
-144 -145 -142 0
-144 -145 -146 0
-144 -145 -147 0
-144 -145 -143 0
-144 -142 -146 0
-144 -142 -147 0
-144 -142 -143 0
-144 -146 -147 0
-144 -146 -143 0
-144 -147 -143 0
-139 -148 -136 0
-139 -148 -137 0
-139 -148 -140 0
-139 -148 -141 0
-139 -148 -138 0
-139 -148 -149 0
-139 -148 -145 0
-139 -148 -142 0
-139 -148 -146 0
-139 -148 -147 0
-139 -148 -143 0
-139 -136 -137 0
-139 -136 -140 0
-139 -136 -141 0
-139 -136 -138 0
-139 -136 -149 0
-139 -136 -145 0
-139 -136 -142 0
-139 -136 -146 0
-139 -136 -147 0
-139 -136 -143 0
-139 -137 -140 0
-139 -137 -141 0
-139 -137 -138 0
-139 -137 -149 0
-139 -137 -145 0
-139 -137 -142 0
-139 -137 -146 0
-139 -137 -147 0
-139 -137 -143 0
-139 -140 -141 0
-139 -140 -138 0
-139 -140 -149 0
-139 -140 -145 0
-139 -140 -142 0
-139 -140 -146 0
-139 -140 -147 0
-139 -140 -143 0
-139 -141 -138 0
-139 -141 -149 0
-139 -141 -145 0
-139 -141 -142 0
-139 -141 -146 0
-139 -141 -147 0
-139 -141 -143 0
-139 -138 -149 0
-139 -138 -145 0
-139 -138 -142 0
-139 -138 -146 0
-139 -138 -147 0
-139 -138 -143 0
-139 -149 -145 0
-139 -149 -142 0
-139 -149 -146 0
-139 -149 -147 0
-139 -149 -143 0
-139 -145 -142 0
-139 -145 -146 0
-139 -145 -147 0
-139 -145 -143 0
-139 -142 -146 0
-139 -142 -147 0
-139 -142 -143 0
-139 -146 -147 0
-139 -146 -143 0
-139 -147 -143 0
-148 -136 -137 0
-148 -136 -140 0
-148 -136 -141 0
-148 -136 -138 0
-148 -136 -149 0
-148 -136 -145 0
-148 -136 -142 0
-148 -136 -146 0
-148 -136 -147 0
-148 -136 -143 0
-148 -137 -140 0
-148 -137 -141 0
-148 -137 -138 0
-148 -137 -149 0
-148 -137 -145 0
-148 -137 -142 0
-148 -137 -146 0
-148 -137 -147 0
-148 -137 -143 0
-148 -140 -141 0
-148 -140 -138 0
-148 -140 -149 0
-148 -140 -145 0
-148 -140 -142 0
-148 -140 -146 0
-148 -140 -147 0
-148 -140 -143 0
-148 -141 -138 0
-148 -141 -149 0
-148 -141 -145 0
-148 -141 -142 0
-148 -141 -146 0
-148 -141 -147 0
-148 -141 -143 0
-148 -138 -149 0
-148 -138 -145 0
-148 -138 -142 0
-148 -138 -146 0
-148 -138 -147 0
-148 -138 -143 0
-148 -149 -145 0
-148 -149 -142 0
-148 -149 -146 0
-148 -149 -147 0
-148 -149 -143 0
-148 -145 -142 0
-148 -145 -146 0
-148 -145 -147 0
-148 -145 -143 0
-148 -142 -146 0
-148 -142 -147 0
-148 -142 -143 0
-148 -146 -147 0
-148 -146 -143 0
-148 -147 -143 0
-136 -137 -140 0
-136 -137 -141 0
-136 -137 -138 0
-136 -137 -149 0
-136 -137 -145 0
-136 -137 -142 0
-136 -137 -146 0
-136 -137 -147 0
-136 -137 -143 0
-136 -140 -141 0
-136 -140 -138 0
-136 -140 -149 0
-136 -140 -145 0
-136 -140 -142 0
-136 -140 -146 0
-136 -140 -147 0
-136 -140 -143 0
-136 -141 -138 0
-136 -141 -149 0
-136 -141 -145 0
-136 -141 -142 0
-136 -141 -146 0
-136 -141 -147 0
-136 -141 -143 0
-136 -138 -149 0
-136 -138 -145 0
-136 -138 -142 0
-136 -138 -146 0
-136 -138 -147 0
-136 -138 -143 0
-136 -149 -145 0
-136 -149 -142 0
-136 -149 -146 0
-136 -149 -147 0
-136 -149 -143 0
-136 -145 -142 0
-136 -145 -146 0
-136 -145 -147 0
-136 -145 -143 0
-136 -142 -146 0
-136 -142 -147 0
-136 -142 -143 0
-136 -146 -147 0
-136 -146 -143 0
-136 -147 -143 0
-137 -140 -141 0
-137 -140 -138 0
-137 -140 -149 0
-137 -140 -145 0
-137 -140 -142 0
-137 -140 -146 0
-137 -140 -147 0
-137 -140 -143 0
-137 -141 -138 0
-137 -141 -149 0
-137 -141 -145 0
-137 -141 -142 0
-137 -141 -146 0
-137 -141 -147 0
-137 -141 -143 0
-137 -138 -149 0
-137 -138 -145 0
-137 -138 -142 0
-137 -138 -146 0
-137 -138 -147 0
-137 -138 -143 0
-137 -149 -145 0
-137 -149 -142 0
-137 -149 -146 0
-137 -149 -147 0
-137 -149 -143 0
-137 -145 -142 0
-137 -145 -146 0
-137 -145 -147 0
-137 -145 -143 0
-137 -142 -146 0
-137 -142 -147 0
-137 -142 -143 0
-137 -146 -147 0
-137 -146 -143 0
-137 -147 -143 0
-140 -141 -138 0
-140 -141 -149 0
-140 -141 -145 0
-140 -141 -142 0
-140 -141 -146 0
-140 -141 -147 0
-140 -141 -143 0
-140 -138 -149 0
-140 -138 -145 0
-140 -138 -142 0
-140 -138 -146 0
-140 -138 -147 0
-140 -138 -143 0
-140 -149 -145 0
-140 -149 -142 0
-140 -149 -146 0
-140 -149 -147 0
-140 -149 -143 0
-140 -145 -142 0
-140 -145 -146 0
-140 -145 -147 0
-140 -145 -143 0
-140 -142 -146 0
-140 -142 -147 0
-140 -142 -143 0
-140 -146 -147 0
-140 -146 -143 0
-140 -147 -143 0
-141 -138 -149 0
-141 -138 -145 0
-141 -138 -142 0
-141 -138 -146 0
-141 -138 -147 0
-141 -138 -143 0
-141 -149 -145 0
-141 -149 -142 0
-141 -149 -146 0
-141 -149 -147 0
-141 -149 -143 0
-141 -145 -142 0
-141 -145 -146 0
-141 -145 -147 0
-141 -145 -143 0
-141 -142 -146 0
-141 -142 -147 0
-141 -142 -143 0
-141 -146 -147 0
-141 -146 -143 0
-141 -147 -143 0
-138 -149 -145 0
-138 -149 -142 0
-138 -149 -146 0
-138 -149 -147 0
-138 -149 -143 0
-138 -145 -142 0
-138 -145 -146 0
-138 -145 -147 0
-138 -145 -143 0
-138 -142 -146 0
-138 -142 -147 0
-138 -142 -143 0
-138 -146 -147 0
-138 -146 -143 0
-138 -147 -143 0
-149 -145 -142 0
-149 -145 -146 0
-149 -145 -147 0
-149 -145 -143 0
-149 -142 -146 0
-149 -142 -147 0
-149 -142 -143 0
-149 -146 -147 0
-149 -146 -143 0
-149 -147 -143 0
-145 -142 -146 0
-145 -142 -147 0
-145 -142 -143 0
-145 -146 -147 0
-145 -146 -143 0
-145 -147 -143 0
-142 -146 -147 0
-142 -146 -143 0
-142 -147 -143 0
-146 -147 -143 0
150 144 139 148 136 137 140 141 138 149 145 142 146 147 0
150 144 139 148 136 137 140 141 138 149 145 142 146 143 0
150 144 139 148 136 137 140 141 138 149 145 142 147 143 0
150 144 139 148 136 137 140 141 138 149 145 146 147 143 0
150 144 139 148 136 137 140 141 138 149 142 146 147 143 0
150 144 139 148 136 137 140 141 138 145 142 146 147 143 0
150 144 139 148 136 137 140 141 149 145 142 146 147 143 0
150 144 139 148 136 137 140 138 149 145 142 146 147 143 0
150 144 139 148 136 137 141 138 149 145 142 146 147 143 0
150 144 139 148 136 140 141 138 149 145 142 146 147 143 0
150 144 139 148 137 140 141 138 149 145 142 146 147 143 0
150 144 139 136 137 140 141 138 149 145 142 146 147 143 0
150 144 148 136 137 140 141 138 149 145 142 146 147 143 0
150 139 148 136 137 140 141 138 149 145 142 146 147 143 0
144 139 148 136 137 140 141 138 149 145 142 146 147 143 0
