Ex2/SET-COVER/output/nfa_output_SET-COVER-3-Contradiction.txt
(-y_T12_Chemistry) ∧
(-y_T12_History) ∧
(-y_T12_Music) ∧
(-y_T12_English) ∧
(-y_T12_Math) ∧
(y_T12_Biology) ∧
(-y_T12_Physics) ∧
(y_T12_Art) ∧
(y_T12_Computer Science) ∧
(-y_T13_Chemistry) ∧
(-y_T13_History) ∧
(y_T13_Music) ∧
(y_T13_English) ∧
(-y_T13_Math) ∧
(y_T13_Biology) ∧
(-y_T13_Physics) ∧
(-y_T13_Art) ∧
(-y_T13_Computer Science) ∧
(-y_T8_Chemistry) ∧
(y_T8_History) ∧
(-y_T8_Music) ∧
(y_T8_English) ∧
(-y_T8_Math) ∧
(-y_T8_Biology) ∧
(-y_T8_Physics) ∧
(y_T8_Art) ∧
(-y_T8_Computer Science) ∧
(-y_T1_Chemistry) ∧
(-y_T1_History) ∧
(-y_T1_Music) ∧
(-y_T1_English) ∧
(y_T1_Math) ∧
(-y_T1_Biology) ∧
(y_T1_Physics) ∧
(-y_T1_Art) ∧
(-y_T1_Computer Science) ∧
(y_T14_Chemistry) ∧
(-y_T14_History) ∧
(-y_T14_Music) ∧
(-y_T14_English) ∧
(y_T14_Math) ∧
(-y_T14_Biology) ∧
(-y_T14_Physics) ∧
(-y_T14_Art) ∧
(y_T14_Computer Science) ∧
(y_T5_Chemistry) ∧
(-y_T5_History) ∧
(-y_T5_Music) ∧
(-y_T5_English) ∧
(-y_T5_Math) ∧
(-y_T5_Biology) ∧
(y_T5_Physics) ∧
(-y_T5_Art) ∧
(-y_T5_Computer Science) ∧
(-y_T11_Chemistry) ∧
(y_T11_History) ∧
(-y_T11_Music) ∧
(-y_T11_English) ∧
(y_T11_Math) ∧
(-y_T11_Biology) ∧
(y_T11_Physics) ∧
(-y_T11_Art) ∧
(-y_T11_Computer Science) ∧
(-y_T6_Chemistry) ∧
(y_T6_History) ∧
(-y_T6_Music) ∧
(-y_T6_English) ∧
(-y_T6_Math) ∧
(y_T6_Biology) ∧
(-y_T6_Physics) ∧
(y_T6_Art) ∧
(-y_T6_Computer Science) ∧
(y_T2_Chemistry) ∧
(-y_T2_History) ∧
(-y_T2_Music) ∧
(-y_T2_English) ∧
(y_T2_Math) ∧
(y_T2_Biology) ∧
(-y_T2_Physics) ∧
(-y_T2_Art) ∧
(-y_T2_Computer Science) ∧
(-y_T7_Chemistry) ∧
(-y_T7_History) ∧
(-y_T7_Music) ∧
(-y_T7_English) ∧
(y_T7_Math) ∧
(-y_T7_Biology) ∧
(y_T7_Physics) ∧
(-y_T7_Art) ∧
(y_T7_Computer Science) ∧
(-y_T10_Chemistry) ∧
(-y_T10_History) ∧
(y_T10_Music) ∧
(-y_T10_English) ∧
(-y_T10_Math) ∧
(-y_T10_Biology) ∧
(y_T10_Physics) ∧
(y_T10_Art) ∧
(-y_T10_Computer Science) ∧
(-y_T15_Chemistry) ∧
(y_T15_History) ∧
(y_T15_Music) ∧
(-y_T15_English) ∧
(-y_T15_Math) ∧
(-y_T15_Biology) ∧
(y_T15_Physics) ∧
(-y_T15_Art) ∧
(-y_T15_Computer Science) ∧
(-y_T9_Chemistry) ∧
(-y_T9_History) ∧
(y_T9_Music) ∧
(-y_T9_English) ∧
(y_T9_Math) ∧
(y_T9_Biology) ∧
(-y_T9_Physics) ∧
(-y_T9_Art) ∧
(-y_T9_Computer Science) ∧
(-y_T3_Chemistry) ∧
(-y_T3_History) ∧
(-y_T3_Music) ∧
(y_T3_English) ∧
(-y_T3_Math) ∧
(-y_T3_Biology) ∧
(y_T3_Physics) ∧
(-y_T3_Art) ∧
(y_T3_Computer Science) ∧
(-y_T4_Chemistry) ∧
(y_T4_History) ∧
(-y_T4_Music) ∧
(y_T4_English) ∧
(y_T4_Math) ∧
(-y_T4_Biology) ∧
(-y_T4_Physics) ∧
(-y_T4_Art) ∧
(-y_T4_Computer Science) ∧
(x_T14 ∨ x_T5 ∨ x_T2) ∧
(x_T8 ∨ x_T11 ∨ x_T6 ∨ x_T15 ∨ x_T4) ∧
(x_T13 ∨ x_T10 ∨ x_T15 ∨ x_T9) ∧
(x_T13 ∨ x_T8 ∨ x_T3 ∨ x_T4) ∧
(x_T1 ∨ x_T14 ∨ x_T11 ∨ x_T2 ∨ x_T7 ∨ x_T9 ∨ x_T4) ∧
(x_T12 ∨ x_T13 ∨ x_T6 ∨ x_T2 ∨ x_T9) ∧
(x_T1 ∨ x_T5 ∨ x_T11 ∨ x_T7 ∨ x_T10 ∨ x_T15 ∨ x_T3) ∧
(x_T12 ∨ x_T8 ∨ x_T6 ∨ x_T10) ∧
(x_T12 ∨ x_T14 ∨ x_T7 ∨ x_T3) ∧
(-x_T12 ∨ -x_T13 ∨ -x_T8) ∧
(-x_T12 ∨ -x_T13 ∨ -x_T1) ∧
(-x_T12 ∨ -x_T13 ∨ -x_T14) ∧
(-x_T12 ∨ -x_T13 ∨ -x_T5) ∧
(-x_T12 ∨ -x_T13 ∨ -x_T11) ∧
(-x_T12 ∨ -x_T13 ∨ -x_T6) ∧
(-x_T12 ∨ -x_T13 ∨ -x_T2) ∧
(-x_T12 ∨ -x_T13 ∨ -x_T7) ∧
(-x_T12 ∨ -x_T13 ∨ -x_T10) ∧
(-x_T12 ∨ -x_T13 ∨ -x_T15) ∧
(-x_T12 ∨ -x_T13 ∨ -x_T9) ∧
(-x_T12 ∨ -x_T13 ∨ -x_T3) ∧
(-x_T12 ∨ -x_T13 ∨ -x_T4) ∧
(-x_T12 ∨ -x_T8 ∨ -x_T1) ∧
(-x_T12 ∨ -x_T8 ∨ -x_T14) ∧
(-x_T12 ∨ -x_T8 ∨ -x_T5) ∧
(-x_T12 ∨ -x_T8 ∨ -x_T11) ∧
(-x_T12 ∨ -x_T8 ∨ -x_T6) ∧
(-x_T12 ∨ -x_T8 ∨ -x_T2) ∧
(-x_T12 ∨ -x_T8 ∨ -x_T7) ∧
(-x_T12 ∨ -x_T8 ∨ -x_T10) ∧
(-x_T12 ∨ -x_T8 ∨ -x_T15) ∧
(-x_T12 ∨ -x_T8 ∨ -x_T9) ∧
(-x_T12 ∨ -x_T8 ∨ -x_T3) ∧
(-x_T12 ∨ -x_T8 ∨ -x_T4) ∧
(-x_T12 ∨ -x_T1 ∨ -x_T14) ∧
(-x_T12 ∨ -x_T1 ∨ -x_T5) ∧
(-x_T12 ∨ -x_T1 ∨ -x_T11) ∧
(-x_T12 ∨ -x_T1 ∨ -x_T6) ∧
(-x_T12 ∨ -x_T1 ∨ -x_T2) ∧
(-x_T12 ∨ -x_T1 ∨ -x_T7) ∧
(-x_T12 ∨ -x_T1 ∨ -x_T10) ∧
(-x_T12 ∨ -x_T1 ∨ -x_T15) ∧
(-x_T12 ∨ -x_T1 ∨ -x_T9) ∧
(-x_T12 ∨ -x_T1 ∨ -x_T3) ∧
(-x_T12 ∨ -x_T1 ∨ -x_T4) ∧
(-x_T12 ∨ -x_T14 ∨ -x_T5) ∧
(-x_T12 ∨ -x_T14 ∨ -x_T11) ∧
(-x_T12 ∨ -x_T14 ∨ -x_T6) ∧
(-x_T12 ∨ -x_T14 ∨ -x_T2) ∧
(-x_T12 ∨ -x_T14 ∨ -x_T7) ∧
(-x_T12 ∨ -x_T14 ∨ -x_T10) ∧
(-x_T12 ∨ -x_T14 ∨ -x_T15) ∧
(-x_T12 ∨ -x_T14 ∨ -x_T9) ∧
(-x_T12 ∨ -x_T14 ∨ -x_T3) ∧
(-x_T12 ∨ -x_T14 ∨ -x_T4) ∧
(-x_T12 ∨ -x_T5 ∨ -x_T11) ∧
(-x_T12 ∨ -x_T5 ∨ -x_T6) ∧
(-x_T12 ∨ -x_T5 ∨ -x_T2) ∧
(-x_T12 ∨ -x_T5 ∨ -x_T7) ∧
(-x_T12 ∨ -x_T5 ∨ -x_T10) ∧
(-x_T12 ∨ -x_T5 ∨ -x_T15) ∧
(-x_T12 ∨ -x_T5 ∨ -x_T9) ∧
(-x_T12 ∨ -x_T5 ∨ -x_T3) ∧
(-x_T12 ∨ -x_T5 ∨ -x_T4) ∧
(-x_T12 ∨ -x_T11 ∨ -x_T6) ∧
(-x_T12 ∨ -x_T11 ∨ -x_T2) ∧
(-x_T12 ∨ -x_T11 ∨ -x_T7) ∧
(-x_T12 ∨ -x_T11 ∨ -x_T10) ∧
(-x_T12 ∨ -x_T11 ∨ -x_T15) ∧
(-x_T12 ∨ -x_T11 ∨ -x_T9) ∧
(-x_T12 ∨ -x_T11 ∨ -x_T3) ∧
(-x_T12 ∨ -x_T11 ∨ -x_T4) ∧
(-x_T12 ∨ -x_T6 ∨ -x_T2) ∧
(-x_T12 ∨ -x_T6 ∨ -x_T7) ∧
(-x_T12 ∨ -x_T6 ∨ -x_T10) ∧
(-x_T12 ∨ -x_T6 ∨ -x_T15) ∧
(-x_T12 ∨ -x_T6 ∨ -x_T9) ∧
(-x_T12 ∨ -x_T6 ∨ -x_T3) ∧
(-x_T12 ∨ -x_T6 ∨ -x_T4) ∧
(-x_T12 ∨ -x_T2 ∨ -x_T7) ∧
(-x_T12 ∨ -x_T2 ∨ -x_T10) ∧
(-x_T12 ∨ -x_T2 ∨ -x_T15) ∧
(-x_T12 ∨ -x_T2 ∨ -x_T9) ∧
(-x_T12 ∨ -x_T2 ∨ -x_T3) ∧
(-x_T12 ∨ -x_T2 ∨ -x_T4) ∧
(-x_T12 ∨ -x_T7 ∨ -x_T10) ∧
(-x_T12 ∨ -x_T7 ∨ -x_T15) ∧
(-x_T12 ∨ -x_T7 ∨ -x_T9) ∧
(-x_T12 ∨ -x_T7 ∨ -x_T3) ∧
(-x_T12 ∨ -x_T7 ∨ -x_T4) ∧
(-x_T12 ∨ -x_T10 ∨ -x_T15) ∧
(-x_T12 ∨ -x_T10 ∨ -x_T9) ∧
(-x_T12 ∨ -x_T10 ∨ -x_T3) ∧
(-x_T12 ∨ -x_T10 ∨ -x_T4) ∧
(-x_T12 ∨ -x_T15 ∨ -x_T9) ∧
(-x_T12 ∨ -x_T15 ∨ -x_T3) ∧
(-x_T12 ∨ -x_T15 ∨ -x_T4) ∧
(-x_T12 ∨ -x_T9 ∨ -x_T3) ∧
(-x_T12 ∨ -x_T9 ∨ -x_T4) ∧
(-x_T12 ∨ -x_T3 ∨ -x_T4) ∧
(-x_T13 ∨ -x_T8 ∨ -x_T1) ∧
(-x_T13 ∨ -x_T8 ∨ -x_T14) ∧
(-x_T13 ∨ -x_T8 ∨ -x_T5) ∧
(-x_T13 ∨ -x_T8 ∨ -x_T11) ∧
(-x_T13 ∨ -x_T8 ∨ -x_T6) ∧
(-x_T13 ∨ -x_T8 ∨ -x_T2) ∧
(-x_T13 ∨ -x_T8 ∨ -x_T7) ∧
(-x_T13 ∨ -x_T8 ∨ -x_T10) ∧
(-x_T13 ∨ -x_T8 ∨ -x_T15) ∧
(-x_T13 ∨ -x_T8 ∨ -x_T9) ∧
(-x_T13 ∨ -x_T8 ∨ -x_T3) ∧
(-x_T13 ∨ -x_T8 ∨ -x_T4) ∧
(-x_T13 ∨ -x_T1 ∨ -x_T14) ∧
(-x_T13 ∨ -x_T1 ∨ -x_T5) ∧
(-x_T13 ∨ -x_T1 ∨ -x_T11) ∧
(-x_T13 ∨ -x_T1 ∨ -x_T6) ∧
(-x_T13 ∨ -x_T1 ∨ -x_T2) ∧
(-x_T13 ∨ -x_T1 ∨ -x_T7) ∧
(-x_T13 ∨ -x_T1 ∨ -x_T10) ∧
(-x_T13 ∨ -x_T1 ∨ -x_T15) ∧
(-x_T13 ∨ -x_T1 ∨ -x_T9) ∧
(-x_T13 ∨ -x_T1 ∨ -x_T3) ∧
(-x_T13 ∨ -x_T1 ∨ -x_T4) ∧
(-x_T13 ∨ -x_T14 ∨ -x_T5) ∧
(-x_T13 ∨ -x_T14 ∨ -x_T11) ∧
(-x_T13 ∨ -x_T14 ∨ -x_T6) ∧
(-x_T13 ∨ -x_T14 ∨ -x_T2) ∧
(-x_T13 ∨ -x_T14 ∨ -x_T7) ∧
(-x_T13 ∨ -x_T14 ∨ -x_T10) ∧
(-x_T13 ∨ -x_T14 ∨ -x_T15) ∧
(-x_T13 ∨ -x_T14 ∨ -x_T9) ∧
(-x_T13 ∨ -x_T14 ∨ -x_T3) ∧
(-x_T13 ∨ -x_T14 ∨ -x_T4) ∧
(-x_T13 ∨ -x_T5 ∨ -x_T11) ∧
(-x_T13 ∨ -x_T5 ∨ -x_T6) ∧
(-x_T13 ∨ -x_T5 ∨ -x_T2) ∧
(-x_T13 ∨ -x_T5 ∨ -x_T7) ∧
(-x_T13 ∨ -x_T5 ∨ -x_T10) ∧
(-x_T13 ∨ -x_T5 ∨ -x_T15) ∧
(-x_T13 ∨ -x_T5 ∨ -x_T9) ∧
(-x_T13 ∨ -x_T5 ∨ -x_T3) ∧
(-x_T13 ∨ -x_T5 ∨ -x_T4) ∧
(-x_T13 ∨ -x_T11 ∨ -x_T6) ∧
(-x_T13 ∨ -x_T11 ∨ -x_T2) ∧
(-x_T13 ∨ -x_T11 ∨ -x_T7) ∧
(-x_T13 ∨ -x_T11 ∨ -x_T10) ∧
(-x_T13 ∨ -x_T11 ∨ -x_T15) ∧
(-x_T13 ∨ -x_T11 ∨ -x_T9) ∧
(-x_T13 ∨ -x_T11 ∨ -x_T3) ∧
(-x_T13 ∨ -x_T11 ∨ -x_T4) ∧
(-x_T13 ∨ -x_T6 ∨ -x_T2) ∧
(-x_T13 ∨ -x_T6 ∨ -x_T7) ∧
(-x_T13 ∨ -x_T6 ∨ -x_T10) ∧
(-x_T13 ∨ -x_T6 ∨ -x_T15) ∧
(-x_T13 ∨ -x_T6 ∨ -x_T9) ∧
(-x_T13 ∨ -x_T6 ∨ -x_T3) ∧
(-x_T13 ∨ -x_T6 ∨ -x_T4) ∧
(-x_T13 ∨ -x_T2 ∨ -x_T7) ∧
(-x_T13 ∨ -x_T2 ∨ -x_T10) ∧
(-x_T13 ∨ -x_T2 ∨ -x_T15) ∧
(-x_T13 ∨ -x_T2 ∨ -x_T9) ∧
(-x_T13 ∨ -x_T2 ∨ -x_T3) ∧
(-x_T13 ∨ -x_T2 ∨ -x_T4) ∧
(-x_T13 ∨ -x_T7 ∨ -x_T10) ∧
(-x_T13 ∨ -x_T7 ∨ -x_T15) ∧
(-x_T13 ∨ -x_T7 ∨ -x_T9) ∧
(-x_T13 ∨ -x_T7 ∨ -x_T3) ∧
(-x_T13 ∨ -x_T7 ∨ -x_T4) ∧
(-x_T13 ∨ -x_T10 ∨ -x_T15) ∧
(-x_T13 ∨ -x_T10 ∨ -x_T9) ∧
(-x_T13 ∨ -x_T10 ∨ -x_T3) ∧
(-x_T13 ∨ -x_T10 ∨ -x_T4) ∧
(-x_T13 ∨ -x_T15 ∨ -x_T9) ∧
(-x_T13 ∨ -x_T15 ∨ -x_T3) ∧
(-x_T13 ∨ -x_T15 ∨ -x_T4) ∧
(-x_T13 ∨ -x_T9 ∨ -x_T3) ∧
(-x_T13 ∨ -x_T9 ∨ -x_T4) ∧
(-x_T13 ∨ -x_T3 ∨ -x_T4) ∧
(-x_T8 ∨ -x_T1 ∨ -x_T14) ∧
(-x_T8 ∨ -x_T1 ∨ -x_T5) ∧
(-x_T8 ∨ -x_T1 ∨ -x_T11) ∧
(-x_T8 ∨ -x_T1 ∨ -x_T6) ∧
(-x_T8 ∨ -x_T1 ∨ -x_T2) ∧
(-x_T8 ∨ -x_T1 ∨ -x_T7) ∧
(-x_T8 ∨ -x_T1 ∨ -x_T10) ∧
(-x_T8 ∨ -x_T1 ∨ -x_T15) ∧
(-x_T8 ∨ -x_T1 ∨ -x_T9) ∧
(-x_T8 ∨ -x_T1 ∨ -x_T3) ∧
(-x_T8 ∨ -x_T1 ∨ -x_T4) ∧
(-x_T8 ∨ -x_T14 ∨ -x_T5) ∧
(-x_T8 ∨ -x_T14 ∨ -x_T11) ∧
(-x_T8 ∨ -x_T14 ∨ -x_T6) ∧
(-x_T8 ∨ -x_T14 ∨ -x_T2) ∧
(-x_T8 ∨ -x_T14 ∨ -x_T7) ∧
(-x_T8 ∨ -x_T14 ∨ -x_T10) ∧
(-x_T8 ∨ -x_T14 ∨ -x_T15) ∧
(-x_T8 ∨ -x_T14 ∨ -x_T9) ∧
(-x_T8 ∨ -x_T14 ∨ -x_T3) ∧
(-x_T8 ∨ -x_T14 ∨ -x_T4) ∧
(-x_T8 ∨ -x_T5 ∨ -x_T11) ∧
(-x_T8 ∨ -x_T5 ∨ -x_T6) ∧
(-x_T8 ∨ -x_T5 ∨ -x_T2) ∧
(-x_T8 ∨ -x_T5 ∨ -x_T7) ∧
(-x_T8 ∨ -x_T5 ∨ -x_T10) ∧
(-x_T8 ∨ -x_T5 ∨ -x_T15) ∧
(-x_T8 ∨ -x_T5 ∨ -x_T9) ∧
(-x_T8 ∨ -x_T5 ∨ -x_T3) ∧
(-x_T8 ∨ -x_T5 ∨ -x_T4) ∧
(-x_T8 ∨ -x_T11 ∨ -x_T6) ∧
(-x_T8 ∨ -x_T11 ∨ -x_T2) ∧
(-x_T8 ∨ -x_T11 ∨ -x_T7) ∧
(-x_T8 ∨ -x_T11 ∨ -x_T10) ∧
(-x_T8 ∨ -x_T11 ∨ -x_T15) ∧
(-x_T8 ∨ -x_T11 ∨ -x_T9) ∧
(-x_T8 ∨ -x_T11 ∨ -x_T3) ∧
(-x_T8 ∨ -x_T11 ∨ -x_T4) ∧
(-x_T8 ∨ -x_T6 ∨ -x_T2) ∧
(-x_T8 ∨ -x_T6 ∨ -x_T7) ∧
(-x_T8 ∨ -x_T6 ∨ -x_T10) ∧
(-x_T8 ∨ -x_T6 ∨ -x_T15) ∧
(-x_T8 ∨ -x_T6 ∨ -x_T9) ∧
(-x_T8 ∨ -x_T6 ∨ -x_T3) ∧
(-x_T8 ∨ -x_T6 ∨ -x_T4) ∧
(-x_T8 ∨ -x_T2 ∨ -x_T7) ∧
(-x_T8 ∨ -x_T2 ∨ -x_T10) ∧
(-x_T8 ∨ -x_T2 ∨ -x_T15) ∧
(-x_T8 ∨ -x_T2 ∨ -x_T9) ∧
(-x_T8 ∨ -x_T2 ∨ -x_T3) ∧
(-x_T8 ∨ -x_T2 ∨ -x_T4) ∧
(-x_T8 ∨ -x_T7 ∨ -x_T10) ∧
(-x_T8 ∨ -x_T7 ∨ -x_T15) ∧
(-x_T8 ∨ -x_T7 ∨ -x_T9) ∧
(-x_T8 ∨ -x_T7 ∨ -x_T3) ∧
(-x_T8 ∨ -x_T7 ∨ -x_T4) ∧
(-x_T8 ∨ -x_T10 ∨ -x_T15) ∧
(-x_T8 ∨ -x_T10 ∨ -x_T9) ∧
(-x_T8 ∨ -x_T10 ∨ -x_T3) ∧
(-x_T8 ∨ -x_T10 ∨ -x_T4) ∧
(-x_T8 ∨ -x_T15 ∨ -x_T9) ∧
(-x_T8 ∨ -x_T15 ∨ -x_T3) ∧
(-x_T8 ∨ -x_T15 ∨ -x_T4) ∧
(-x_T8 ∨ -x_T9 ∨ -x_T3) ∧
(-x_T8 ∨ -x_T9 ∨ -x_T4) ∧
(-x_T8 ∨ -x_T3 ∨ -x_T4) ∧
(-x_T1 ∨ -x_T14 ∨ -x_T5) ∧
(-x_T1 ∨ -x_T14 ∨ -x_T11) ∧
(-x_T1 ∨ -x_T14 ∨ -x_T6) ∧
(-x_T1 ∨ -x_T14 ∨ -x_T2) ∧
(-x_T1 ∨ -x_T14 ∨ -x_T7) ∧
(-x_T1 ∨ -x_T14 ∨ -x_T10) ∧
(-x_T1 ∨ -x_T14 ∨ -x_T15) ∧
(-x_T1 ∨ -x_T14 ∨ -x_T9) ∧
(-x_T1 ∨ -x_T14 ∨ -x_T3) ∧
(-x_T1 ∨ -x_T14 ∨ -x_T4) ∧
(-x_T1 ∨ -x_T5 ∨ -x_T11) ∧
(-x_T1 ∨ -x_T5 ∨ -x_T6) ∧
(-x_T1 ∨ -x_T5 ∨ -x_T2) ∧
(-x_T1 ∨ -x_T5 ∨ -x_T7) ∧
(-x_T1 ∨ -x_T5 ∨ -x_T10) ∧
(-x_T1 ∨ -x_T5 ∨ -x_T15) ∧
(-x_T1 ∨ -x_T5 ∨ -x_T9) ∧
(-x_T1 ∨ -x_T5 ∨ -x_T3) ∧
(-x_T1 ∨ -x_T5 ∨ -x_T4) ∧
(-x_T1 ∨ -x_T11 ∨ -x_T6) ∧
(-x_T1 ∨ -x_T11 ∨ -x_T2) ∧
(-x_T1 ∨ -x_T11 ∨ -x_T7) ∧
(-x_T1 ∨ -x_T11 ∨ -x_T10) ∧
(-x_T1 ∨ -x_T11 ∨ -x_T15) ∧
(-x_T1 ∨ -x_T11 ∨ -x_T9) ∧
(-x_T1 ∨ -x_T11 ∨ -x_T3) ∧
(-x_T1 ∨ -x_T11 ∨ -x_T4) ∧
(-x_T1 ∨ -x_T6 ∨ -x_T2) ∧
(-x_T1 ∨ -x_T6 ∨ -x_T7) ∧
(-x_T1 ∨ -x_T6 ∨ -x_T10) ∧
(-x_T1 ∨ -x_T6 ∨ -x_T15) ∧
(-x_T1 ∨ -x_T6 ∨ -x_T9) ∧
(-x_T1 ∨ -x_T6 ∨ -x_T3) ∧
(-x_T1 ∨ -x_T6 ∨ -x_T4) ∧
(-x_T1 ∨ -x_T2 ∨ -x_T7) ∧
(-x_T1 ∨ -x_T2 ∨ -x_T10) ∧
(-x_T1 ∨ -x_T2 ∨ -x_T15) ∧
(-x_T1 ∨ -x_T2 ∨ -x_T9) ∧
(-x_T1 ∨ -x_T2 ∨ -x_T3) ∧
(-x_T1 ∨ -x_T2 ∨ -x_T4) ∧
(-x_T1 ∨ -x_T7 ∨ -x_T10) ∧
(-x_T1 ∨ -x_T7 ∨ -x_T15) ∧
(-x_T1 ∨ -x_T7 ∨ -x_T9) ∧
(-x_T1 ∨ -x_T7 ∨ -x_T3) ∧
(-x_T1 ∨ -x_T7 ∨ -x_T4) ∧
(-x_T1 ∨ -x_T10 ∨ -x_T15) ∧
(-x_T1 ∨ -x_T10 ∨ -x_T9) ∧
(-x_T1 ∨ -x_T10 ∨ -x_T3) ∧
(-x_T1 ∨ -x_T10 ∨ -x_T4) ∧
(-x_T1 ∨ -x_T15 ∨ -x_T9) ∧
(-x_T1 ∨ -x_T15 ∨ -x_T3) ∧
(-x_T1 ∨ -x_T15 ∨ -x_T4) ∧
(-x_T1 ∨ -x_T9 ∨ -x_T3) ∧
(-x_T1 ∨ -x_T9 ∨ -x_T4) ∧
(-x_T1 ∨ -x_T3 ∨ -x_T4) ∧
(-x_T14 ∨ -x_T5 ∨ -x_T11) ∧
(-x_T14 ∨ -x_T5 ∨ -x_T6) ∧
(-x_T14 ∨ -x_T5 ∨ -x_T2) ∧
(-x_T14 ∨ -x_T5 ∨ -x_T7) ∧
(-x_T14 ∨ -x_T5 ∨ -x_T10) ∧
(-x_T14 ∨ -x_T5 ∨ -x_T15) ∧
(-x_T14 ∨ -x_T5 ∨ -x_T9) ∧
(-x_T14 ∨ -x_T5 ∨ -x_T3) ∧
(-x_T14 ∨ -x_T5 ∨ -x_T4) ∧
(-x_T14 ∨ -x_T11 ∨ -x_T6) ∧
(-x_T14 ∨ -x_T11 ∨ -x_T2) ∧
(-x_T14 ∨ -x_T11 ∨ -x_T7) ∧
(-x_T14 ∨ -x_T11 ∨ -x_T10) ∧
(-x_T14 ∨ -x_T11 ∨ -x_T15) ∧
(-x_T14 ∨ -x_T11 ∨ -x_T9) ∧
(-x_T14 ∨ -x_T11 ∨ -x_T3) ∧
(-x_T14 ∨ -x_T11 ∨ -x_T4) ∧
(-x_T14 ∨ -x_T6 ∨ -x_T2) ∧
(-x_T14 ∨ -x_T6 ∨ -x_T7) ∧
(-x_T14 ∨ -x_T6 ∨ -x_T10) ∧
(-x_T14 ∨ -x_T6 ∨ -x_T15) ∧
(-x_T14 ∨ -x_T6 ∨ -x_T9) ∧
(-x_T14 ∨ -x_T6 ∨ -x_T3) ∧
(-x_T14 ∨ -x_T6 ∨ -x_T4) ∧
(-x_T14 ∨ -x_T2 ∨ -x_T7) ∧
(-x_T14 ∨ -x_T2 ∨ -x_T10) ∧
(-x_T14 ∨ -x_T2 ∨ -x_T15) ∧
(-x_T14 ∨ -x_T2 ∨ -x_T9) ∧
(-x_T14 ∨ -x_T2 ∨ -x_T3) ∧
(-x_T14 ∨ -x_T2 ∨ -x_T4) ∧
(-x_T14 ∨ -x_T7 ∨ -x_T10) ∧
(-x_T14 ∨ -x_T7 ∨ -x_T15) ∧
(-x_T14 ∨ -x_T7 ∨ -x_T9) ∧
(-x_T14 ∨ -x_T7 ∨ -x_T3) ∧
(-x_T14 ∨ -x_T7 ∨ -x_T4) ∧
(-x_T14 ∨ -x_T10 ∨ -x_T15) ∧
(-x_T14 ∨ -x_T10 ∨ -x_T9) ∧
(-x_T14 ∨ -x_T10 ∨ -x_T3) ∧
(-x_T14 ∨ -x_T10 ∨ -x_T4) ∧
(-x_T14 ∨ -x_T15 ∨ -x_T9) ∧
(-x_T14 ∨ -x_T15 ∨ -x_T3) ∧
(-x_T14 ∨ -x_T15 ∨ -x_T4) ∧
(-x_T14 ∨ -x_T9 ∨ -x_T3) ∧
(-x_T14 ∨ -x_T9 ∨ -x_T4) ∧
(-x_T14 ∨ -x_T3 ∨ -x_T4) ∧
(-x_T5 ∨ -x_T11 ∨ -x_T6) ∧
(-x_T5 ∨ -x_T11 ∨ -x_T2) ∧
(-x_T5 ∨ -x_T11 ∨ -x_T7) ∧
(-x_T5 ∨ -x_T11 ∨ -x_T10) ∧
(-x_T5 ∨ -x_T11 ∨ -x_T15) ∧
(-x_T5 ∨ -x_T11 ∨ -x_T9) ∧
(-x_T5 ∨ -x_T11 ∨ -x_T3) ∧
(-x_T5 ∨ -x_T11 ∨ -x_T4) ∧
(-x_T5 ∨ -x_T6 ∨ -x_T2) ∧
(-x_T5 ∨ -x_T6 ∨ -x_T7) ∧
(-x_T5 ∨ -x_T6 ∨ -x_T10) ∧
(-x_T5 ∨ -x_T6 ∨ -x_T15) ∧
(-x_T5 ∨ -x_T6 ∨ -x_T9) ∧
(-x_T5 ∨ -x_T6 ∨ -x_T3) ∧
(-x_T5 ∨ -x_T6 ∨ -x_T4) ∧
(-x_T5 ∨ -x_T2 ∨ -x_T7) ∧
(-x_T5 ∨ -x_T2 ∨ -x_T10) ∧
(-x_T5 ∨ -x_T2 ∨ -x_T15) ∧
(-x_T5 ∨ -x_T2 ∨ -x_T9) ∧
(-x_T5 ∨ -x_T2 ∨ -x_T3) ∧
(-x_T5 ∨ -x_T2 ∨ -x_T4) ∧
(-x_T5 ∨ -x_T7 ∨ -x_T10) ∧
(-x_T5 ∨ -x_T7 ∨ -x_T15) ∧
(-x_T5 ∨ -x_T7 ∨ -x_T9) ∧
(-x_T5 ∨ -x_T7 ∨ -x_T3) ∧
(-x_T5 ∨ -x_T7 ∨ -x_T4) ∧
(-x_T5 ∨ -x_T10 ∨ -x_T15) ∧
(-x_T5 ∨ -x_T10 ∨ -x_T9) ∧
(-x_T5 ∨ -x_T10 ∨ -x_T3) ∧
(-x_T5 ∨ -x_T10 ∨ -x_T4) ∧
(-x_T5 ∨ -x_T15 ∨ -x_T9) ∧
(-x_T5 ∨ -x_T15 ∨ -x_T3) ∧
(-x_T5 ∨ -x_T15 ∨ -x_T4) ∧
(-x_T5 ∨ -x_T9 ∨ -x_T3) ∧
(-x_T5 ∨ -x_T9 ∨ -x_T4) ∧
(-x_T5 ∨ -x_T3 ∨ -x_T4) ∧
(-x_T11 ∨ -x_T6 ∨ -x_T2) ∧
(-x_T11 ∨ -x_T6 ∨ -x_T7) ∧
(-x_T11 ∨ -x_T6 ∨ -x_T10) ∧
(-x_T11 ∨ -x_T6 ∨ -x_T15) ∧
(-x_T11 ∨ -x_T6 ∨ -x_T9) ∧
(-x_T11 ∨ -x_T6 ∨ -x_T3) ∧
(-x_T11 ∨ -x_T6 ∨ -x_T4) ∧
(-x_T11 ∨ -x_T2 ∨ -x_T7) ∧
(-x_T11 ∨ -x_T2 ∨ -x_T10) ∧
(-x_T11 ∨ -x_T2 ∨ -x_T15) ∧
(-x_T11 ∨ -x_T2 ∨ -x_T9) ∧
(-x_T11 ∨ -x_T2 ∨ -x_T3) ∧
(-x_T11 ∨ -x_T2 ∨ -x_T4) ∧
(-x_T11 ∨ -x_T7 ∨ -x_T10) ∧
(-x_T11 ∨ -x_T7 ∨ -x_T15) ∧
(-x_T11 ∨ -x_T7 ∨ -x_T9) ∧
(-x_T11 ∨ -x_T7 ∨ -x_T3) ∧
(-x_T11 ∨ -x_T7 ∨ -x_T4) ∧
(-x_T11 ∨ -x_T10 ∨ -x_T15) ∧
(-x_T11 ∨ -x_T10 ∨ -x_T9) ∧
(-x_T11 ∨ -x_T10 ∨ -x_T3) ∧
(-x_T11 ∨ -x_T10 ∨ -x_T4) ∧
(-x_T11 ∨ -x_T15 ∨ -x_T9) ∧
(-x_T11 ∨ -x_T15 ∨ -x_T3) ∧
(-x_T11 ∨ -x_T15 ∨ -x_T4) ∧
(-x_T11 ∨ -x_T9 ∨ -x_T3) ∧
(-x_T11 ∨ -x_T9 ∨ -x_T4) ∧
(-x_T11 ∨ -x_T3 ∨ -x_T4) ∧
(-x_T6 ∨ -x_T2 ∨ -x_T7) ∧
(-x_T6 ∨ -x_T2 ∨ -x_T10) ∧
(-x_T6 ∨ -x_T2 ∨ -x_T15) ∧
(-x_T6 ∨ -x_T2 ∨ -x_T9) ∧
(-x_T6 ∨ -x_T2 ∨ -x_T3) ∧
(-x_T6 ∨ -x_T2 ∨ -x_T4) ∧
(-x_T6 ∨ -x_T7 ∨ -x_T10) ∧
(-x_T6 ∨ -x_T7 ∨ -x_T15) ∧
(-x_T6 ∨ -x_T7 ∨ -x_T9) ∧
(-x_T6 ∨ -x_T7 ∨ -x_T3) ∧
(-x_T6 ∨ -x_T7 ∨ -x_T4) ∧
(-x_T6 ∨ -x_T10 ∨ -x_T15) ∧
(-x_T6 ∨ -x_T10 ∨ -x_T9) ∧
(-x_T6 ∨ -x_T10 ∨ -x_T3) ∧
(-x_T6 ∨ -x_T10 ∨ -x_T4) ∧
(-x_T6 ∨ -x_T15 ∨ -x_T9) ∧
(-x_T6 ∨ -x_T15 ∨ -x_T3) ∧
(-x_T6 ∨ -x_T15 ∨ -x_T4) ∧
(-x_T6 ∨ -x_T9 ∨ -x_T3) ∧
(-x_T6 ∨ -x_T9 ∨ -x_T4) ∧
(-x_T6 ∨ -x_T3 ∨ -x_T4) ∧
(-x_T2 ∨ -x_T7 ∨ -x_T10) ∧
(-x_T2 ∨ -x_T7 ∨ -x_T15) ∧
(-x_T2 ∨ -x_T7 ∨ -x_T9) ∧
(-x_T2 ∨ -x_T7 ∨ -x_T3) ∧
(-x_T2 ∨ -x_T7 ∨ -x_T4) ∧
(-x_T2 ∨ -x_T10 ∨ -x_T15) ∧
(-x_T2 ∨ -x_T10 ∨ -x_T9) ∧
(-x_T2 ∨ -x_T10 ∨ -x_T3) ∧
(-x_T2 ∨ -x_T10 ∨ -x_T4) ∧
(-x_T2 ∨ -x_T15 ∨ -x_T9) ∧
(-x_T2 ∨ -x_T15 ∨ -x_T3) ∧
(-x_T2 ∨ -x_T15 ∨ -x_T4) ∧
(-x_T2 ∨ -x_T9 ∨ -x_T3) ∧
(-x_T2 ∨ -x_T9 ∨ -x_T4) ∧
(-x_T2 ∨ -x_T3 ∨ -x_T4) ∧
(-x_T7 ∨ -x_T10 ∨ -x_T15) ∧
(-x_T7 ∨ -x_T10 ∨ -x_T9) ∧
(-x_T7 ∨ -x_T10 ∨ -x_T3) ∧
(-x_T7 ∨ -x_T10 ∨ -x_T4) ∧
(-x_T7 ∨ -x_T15 ∨ -x_T9) ∧
(-x_T7 ∨ -x_T15 ∨ -x_T3) ∧
(-x_T7 ∨ -x_T15 ∨ -x_T4) ∧
(-x_T7 ∨ -x_T9 ∨ -x_T3) ∧
(-x_T7 ∨ -x_T9 ∨ -x_T4) ∧
(-x_T7 ∨ -x_T3 ∨ -x_T4) ∧
(-x_T10 ∨ -x_T15 ∨ -x_T9) ∧
(-x_T10 ∨ -x_T15 ∨ -x_T3) ∧
(-x_T10 ∨ -x_T15 ∨ -x_T4) ∧
(-x_T10 ∨ -x_T9 ∨ -x_T3) ∧
(-x_T10 ∨ -x_T9 ∨ -x_T4) ∧
(-x_T10 ∨ -x_T3 ∨ -x_T4) ∧
(-x_T15 ∨ -x_T9 ∨ -x_T3) ∧
(-x_T15 ∨ -x_T9 ∨ -x_T4) ∧
(-x_T15 ∨ -x_T3 ∨ -x_T4) ∧
(-x_T9 ∨ -x_T3 ∨ -x_T4) ∧
(x_T12 ∨ x_T13 ∨ x_T8 ∨ x_T1 ∨ x_T14 ∨ x_T5 ∨ x_T11 ∨ x_T6 ∨ x_T2 ∨ x_T7 ∨ x_T10 ∨ x_T15 ∨ x_T9 ∨ x_T3) ∧
(x_T12 ∨ x_T13 ∨ x_T8 ∨ x_T1 ∨ x_T14 ∨ x_T5 ∨ x_T11 ∨ x_T6 ∨ x_T2 ∨ x_T7 ∨ x_T10 ∨ x_T15 ∨ x_T9 ∨ x_T4) ∧
(x_T12 ∨ x_T13 ∨ x_T8 ∨ x_T1 ∨ x_T14 ∨ x_T5 ∨ x_T11 ∨ x_T6 ∨ x_T2 ∨ x_T7 ∨ x_T10 ∨ x_T15 ∨ x_T3 ∨ x_T4) ∧
(x_T12 ∨ x_T13 ∨ x_T8 ∨ x_T1 ∨ x_T14 ∨ x_T5 ∨ x_T11 ∨ x_T6 ∨ x_T2 ∨ x_T7 ∨ x_T10 ∨ x_T9 ∨ x_T3 ∨ x_T4) ∧
(x_T12 ∨ x_T13 ∨ x_T8 ∨ x_T1 ∨ x_T14 ∨ x_T5 ∨ x_T11 ∨ x_T6 ∨ x_T2 ∨ x_T7 ∨ x_T15 ∨ x_T9 ∨ x_T3 ∨ x_T4) ∧
(x_T12 ∨ x_T13 ∨ x_T8 ∨ x_T1 ∨ x_T14 ∨ x_T5 ∨ x_T11 ∨ x_T6 ∨ x_T2 ∨ x_T10 ∨ x_T15 ∨ x_T9 ∨ x_T3 ∨ x_T4) ∧
(x_T12 ∨ x_T13 ∨ x_T8 ∨ x_T1 ∨ x_T14 ∨ x_T5 ∨ x_T11 ∨ x_T6 ∨ x_T7 ∨ x_T10 ∨ x_T15 ∨ x_T9 ∨ x_T3 ∨ x_T4) ∧
(x_T12 ∨ x_T13 ∨ x_T8 ∨ x_T1 ∨ x_T14 ∨ x_T5 ∨ x_T11 ∨ x_T2 ∨ x_T7 ∨ x_T10 ∨ x_T15 ∨ x_T9 ∨ x_T3 ∨ x_T4) ∧
(x_T12 ∨ x_T13 ∨ x_T8 ∨ x_T1 ∨ x_T14 ∨ x_T5 ∨ x_T6 ∨ x_T2 ∨ x_T7 ∨ x_T10 ∨ x_T15 ∨ x_T9 ∨ x_T3 ∨ x_T4) ∧
(x_T12 ∨ x_T13 ∨ x_T8 ∨ x_T1 ∨ x_T14 ∨ x_T11 ∨ x_T6 ∨ x_T2 ∨ x_T7 ∨ x_T10 ∨ x_T15 ∨ x_T9 ∨ x_T3 ∨ x_T4) ∧
(x_T12 ∨ x_T13 ∨ x_T8 ∨ x_T1 ∨ x_T5 ∨ x_T11 ∨ x_T6 ∨ x_T2 ∨ x_T7 ∨ x_T10 ∨ x_T15 ∨ x_T9 ∨ x_T3 ∨ x_T4) ∧
(x_T12 ∨ x_T13 ∨ x_T8 ∨ x_T14 ∨ x_T5 ∨ x_T11 ∨ x_T6 ∨ x_T2 ∨ x_T7 ∨ x_T10 ∨ x_T15 ∨ x_T9 ∨ x_T3 ∨ x_T4) ∧
(x_T12 ∨ x_T13 ∨ x_T1 ∨ x_T14 ∨ x_T5 ∨ x_T11 ∨ x_T6 ∨ x_T2 ∨ x_T7 ∨ x_T10 ∨ x_T15 ∨ x_T9 ∨ x_T3 ∨ x_T4) ∧
(x_T12 ∨ x_T8 ∨ x_T1 ∨ x_T14 ∨ x_T5 ∨ x_T11 ∨ x_T6 ∨ x_T2 ∨ x_T7 ∨ x_T10 ∨ x_T15 ∨ x_T9 ∨ x_T3 ∨ x_T4) ∧
(x_T13 ∨ x_T8 ∨ x_T1 ∨ x_T14 ∨ x_T5 ∨ x_T11 ∨ x_T6 ∨ x_T2 ∨ x_T7 ∨ x_T10 ∨ x_T15 ∨ x_T9 ∨ x_T3 ∨ x_T4)